NAME : portgen-21-26
COMMENT : portgen N=21, seed=26
TYPE : TSP
DIMENSION : 21
EDGE_WEIGHT_TYPE : EUC_2D
NODE_COORD_SECTION
1 354571 371964
2 107044 525179
3 227724 679619
4 18112 165413
5 920361 22153
6 451044 851617
7 660483 397004
8 950212 674124
9 140274 916298
10 997944 924865
11 516242 918891
12 259467 608412
13 37502 638061
14 431515 272294
15 216308 848589
16 599457 779097
17 260804 466982
18 819038 631914
19 382511 631646
20 330278 108332
21 979424 833673
